g3 1 1 0	# problem unknown
 6 100 1 0 0 	# vars, constraints, objectives, ranges, eqns
 100 1 0 0 0 0	# nonlinear constrs, objs; ccons: lin, nonlin, nd, nzlb
 0 0	# network constraints: nonlinear, linear
 6 3 3 	# nonlinear vars in constraints, objectives, both
 0 0 0 1	# linear network variables; functions; arith, flags
 0 0 0 0 0 	# discrete variables: binary, integer, nonlinear (b,c,o)
 550 3 	# nonzeros in Jacobian, obj. gradient
 0 0	# max name lengths: constraints, variables
 0 0 0 0 0	# common exprs: b,c,o,c1,o1
C0
o54
3
o5
o0
n-0.514
o0
v3
o2
v1
o2
v0
o46
v5
n2.0
o5
o0
n-0.176
o0
v4
o2
v1
o2
v0
o41
v5
n2.0
o2
n-1
o5
o0
v0
v2
n2.0
C1
o54
3
o5
o0
n-0.948
o0
v3
o2
v1
o2
v0
o46
v5
n2.0
o5
o0
n-0.172
o0
v4
o2
v1
o2
v0
o41
v5
n2.0
o2
n-1
o5
o0
v0
v2
n2.0
C2
o54
3
o5
o0
n-0.702
o0
v3
o2
v1
o2
v0
o46
v5
n2.0
o5
o0
n-0.226
o0
v4
o2
v1
o2
v0
o41
v5
n2.0
o2
n-1
o5
o0
v0
v2
n2.0
C3
o54
3
o5
o0
n-0.495
o0
v3
o2
v1
o2
v0
o46
v5
n2.0
o5
o0
n-0.125
o0
v4
o2
v1
o2
v0
o41
v5
n2.0
o2
n-1
o5
o0
v0
v2
n2.0
C4
o54
3
o5
o0
n-0.823
o0
v3
o2
v1
o2
v0
o46
v5
n2.0
o5
o0
n-0.152
o0
v4
o2
v1
o2
v0
o41
v5
n2.0
o2
n-1
o5
o0
v0
v2
n2.0
C5
o54
3
o5
o0
n-0.625
o0
v3
o2
v1
o2
v0
o46
v5
n2.0
o5
o0
n-0.315
o0
v4
o2
v1
o2
v0
o41
v5
n2.0
o2
n-1
o5
o0
v0
v2
n2.0
C6
o54
3
o5
o0
n-0.347
o0
v3
o2
v1
o2
v0
o46
v5
n2.0
o5
o0
n-0.917
o0
v4
o2
v1
o2
v0
o41
v5
n2.0
o2
n-1
o5
o0
v0
v2
n2.0
C7
o54
3
o5
o0
n-0.52
o0
v3
o2
v1
o2
v0
o46
v5
n2.0
o5
o0
n-0.401
o0
v4
o2
v1
o2
v0
o41
v5
n2.0
o2
n-1
o5
o0
v0
v2
n2.0
C8
o54
3
o5
o0
n-0.607
o0
v3
o2
v1
o2
v0
o46
v5
n2.0
o5
o0
n-0.785
o0
v4
o2
v1
o2
v0
o41
v5
n2.0
o2
n-1
o5
o0
v0
v2
n2.0
C9
o54
3
o5
o0
n-0.758
o0
v3
o2
v1
o2
v0
o46
v5
n2.0
o5
o0
n-0.582
o0
v4
o2
v1
o2
v0
o41
v5
n2.0
o2
n-1
o5
o0
v0
v2
n2.0
C10
o54
3
o5
o0
n-0.2
o0
v3
o2
v1
o2
v0
o46
v5
n2.0
o5
o0
n-0.827
o0
v4
o2
v1
o2
v0
o41
v5
n2.0
o2
n-1
o5
o0
v0
v2
n2.0
C11
o54
3
o5
o0
n-0.416
o0
v3
o2
v1
o2
v0
o46
v5
n2.0
o5
o0
n-0.464
o0
v4
o2
v1
o2
v0
o41
v5
n2.0
o2
n-1
o5
o0
v0
v2
n2.0
C12
o54
3
o5
o0
n-0.979
o0
v3
o2
v1
o2
v0
o46
v5
n2.0
o5
o0
n-0.126
o0
v4
o2
v1
o2
v0
o41
v5
n2.0
o2
n-1
o5
o0
v0
v2
n2.0
C13
o54
3
o5
o0
n-0.213
o0
v3
o2
v1
o2
v0
o46
v5
n2.0
o5
o0
n-0.958
o0
v4
o2
v1
o2
v0
o41
v5
n2.0
o2
n-1
o5
o0
v0
v2
n2.0
C14
o54
3
o5
o0
n-0.737
o0
v3
o2
v1
o2
v0
o46
v5
n2.0
o5
o0
n-0.409
o0
v4
o2
v1
o2
v0
o41
v5
n2.0
o2
n-1
o5
o0
v0
v2
n2.0
C15
o54
3
o5
o0
n-0.957
o0
v3
o2
v1
o2
v0
o46
v5
n2.0
o5
o0
n-0.028
o0
v4
o2
v1
o2
v0
o41
v5
n2.0
o2
n-1
o5
o0
v0
v2
n2.0
C16
o54
3
o5
o0
n-0.319
o0
v3
o2
v1
o2
v0
o46
v5
n2.0
o5
o0
n-0.757
o0
v4
o2
v1
o2
v0
o41
v5
n2.0
o2
n-1
o5
o0
v0
v2
n2.0
C17
o54
3
o5
o0
n-0.572
o0
v3
o2
v1
o2
v0
o46
v5
n2.0
o5
o0
n-0.119
o0
v4
o2
v1
o2
v0
o41
v5
n2.0
o2
n-1
o5
o0
v0
v2
n2.0
C18
o54
3
o5
o0
n-0.57
o0
v3
o2
v1
o2
v0
o46
v5
n2.0
o5
o0
n-0.252
o0
v4
o2
v1
o2
v0
o41
v5
n2.0
o2
n-1
o5
o0
v0
v2
n2.0
C19
o54
3
o5
o0
n-0.496
o0
v3
o2
v1
o2
v0
o46
v5
n2.0
o5
o0
n-0.237
o0
v4
o2
v1
o2
v0
o41
v5
n2.0
o2
n-1
o5
o0
v0
v2
n2.0
C20
o54
3
o5
o0
n-0.477
o0
v3
o2
v1
o2
v0
o46
v5
n2.0
o5
o0
n-0.406
o0
v4
o2
v1
o2
v0
o41
v5
n2.0
o2
n-1
o5
o0
v0
v2
n2.0
C21
o54
3
o5
o0
n-0.873
o0
v3
o2
v1
o2
v0
o46
v5
n2.0
o5
o0
n-0.427
o0
v4
o2
v1
o2
v0
o41
v5
n2.0
o2
n-1
o5
o0
v0
v2
n2.0
C22
o54
3
o5
o0
n-0.522
o0
v3
o2
v1
o2
v0
o46
v5
n2.0
o5
o0
n-0.697
o0
v4
o2
v1
o2
v0
o41
v5
n2.0
o2
n-1
o5
o0
v0
v2
n2.0
C23
o54
3
o5
o0
n-0.773
o0
v3
o2
v1
o2
v0
o46
v5
n2.0
o5
o0
n-0.245
o0
v4
o2
v1
o2
v0
o41
v5
n2.0
o2
n-1
o5
o0
v0
v2
n2.0
C24
o54
3
o5
o0
n-0.887
o0
v3
o2
v1
o2
v0
o46
v5
n2.0
o5
o0
n-0.037
o0
v4
o2
v1
o2
v0
o41
v5
n2.0
o2
n-1
o5
o0
v0
v2
n2.0
C25
o54
3
o5
o0
n-0.651
o0
v3
o2
v1
o2
v0
o46
v5
n2.0
o5
o0
n-0.399
o0
v4
o2
v1
o2
v0
o41
v5
n2.0
o2
n-1
o5
o0
v0
v2
n2.0
C26
o54
3
o5
o0
n-0.676
o0
v3
o2
v1
o2
v0
o46
v5
n2.0
o5
o0
n-0.733
o0
v4
o2
v1
o2
v0
o41
v5
n2.0
o2
n-1
o5
o0
v0
v2
n2.0
C27
o54
3
o5
o0
n-0.938
o0
v3
o2
v1
o2
v0
o46
v5
n2.0
o5
o0
n-0.233
o0
v4
o2
v1
o2
v0
o41
v5
n2.0
o2
n-1
o5
o0
v0
v2
n2.0
C28
o54
3
o5
o0
n-0.779
o0
v3
o2
v1
o2
v0
o46
v5
n2.0
o5
o0
n-0.431
o0
v4
o2
v1
o2
v0
o41
v5
n2.0
o2
n-1
o5
o0
v0
v2
n2.0
C29
o54
3
o5
o0
n-0.75
o0
v3
o2
v1
o2
v0
o46
v5
n2.0
o5
o0
n-0.208
o0
v4
o2
v1
o2
v0
o41
v5
n2.0
o2
n-1
o5
o0
v0
v2
n2.0
C30
o54
3
o5
o0
n-0.803
o0
v3
o2
v1
o2
v0
o46
v5
n2.0
o5
o0
n-0.219
o0
v4
o2
v1
o2
v0
o41
v5
n2.0
o2
n-1
o5
o0
v0
v2
n2.0
C31
o54
3
o5
o0
n-0.563
o0
v3
o2
v1
o2
v0
o46
v5
n2.0
o5
o0
n-0.716
o0
v4
o2
v1
o2
v0
o41
v5
n2.0
o2
n-1
o5
o0
v0
v2
n2.0
C32
o54
3
o5
o0
n-0.653
o0
v3
o2
v1
o2
v0
o46
v5
n2.0
o5
o0
n-0.604
o0
v4
o2
v1
o2
v0
o41
v5
n2.0
o2
n-1
o5
o0
v0
v2
n2.0
C33
o54
3
o5
o0
n-0.79
o0
v3
o2
v1
o2
v0
o46
v5
n2.0
o5
o0
n-0.079
o0
v4
o2
v1
o2
v0
o41
v5
n2.0
o2
n-1
o5
o0
v0
v2
n2.0
C34
o54
3
o5
o0
n-0.246
o0
v3
o2
v1
o2
v0
o46
v5
n2.0
o5
o0
n-0.945
o0
v4
o2
v1
o2
v0
o41
v5
n2.0
o2
n-1
o5
o0
v0
v2
n2.0
C35
o54
3
o5
o0
n-0.477
o0
v3
o2
v1
o2
v0
o46
v5
n2.0
o5
o0
n-0.8
o0
v4
o2
v1
o2
v0
o41
v5
n2.0
o2
n-1
o5
o0
v0
v2
n2.0
C36
o54
3
o5
o0
n-0.744
o0
v3
o2
v1
o2
v0
o46
v5
n2.0
o5
o0
n-0.381
o0
v4
o2
v1
o2
v0
o41
v5
n2.0
o2
n-1
o5
o0
v0
v2
n2.0
C37
o54
3
o5
o0
n-0.48
o0
v3
o2
v1
o2
v0
o46
v5
n2.0
o5
o0
n-0.527
o0
v4
o2
v1
o2
v0
o41
v5
n2.0
o2
n-1
o5
o0
v0
v2
n2.0
C38
o54
3
o5
o0
n-0.446
o0
v3
o2
v1
o2
v0
o46
v5
n2.0
o5
o0
n-0.705
o0
v4
o2
v1
o2
v0
o41
v5
n2.0
o2
n-1
o5
o0
v0
v2
n2.0
C39
o54
3
o5
o0
n-0.095
o0
v3
o2
v1
o2
v0
o46
v5
n2.0
o5
o0
n-0.963
o0
v4
o2
v1
o2
v0
o41
v5
n2.0
o2
n-1
o5
o0
v0
v2
n2.0
C40
o54
3
o5
o0
n-0.551
o0
v3
o2
v1
o2
v0
o46
v5
n2.0
o5
o0
n-0.74
o0
v4
o2
v1
o2
v0
o41
v5
n2.0
o2
n-1
o5
o0
v0
v2
n2.0
C41
o54
3
o5
o0
n-0.579
o0
v3
o2
v1
o2
v0
o46
v5
n2.0
o5
o0
n-0.638
o0
v4
o2
v1
o2
v0
o41
v5
n2.0
o2
n-1
o5
o0
v0
v2
n2.0
C42
o54
3
o5
o0
n-0.782
o0
v3
o2
v1
o2
v0
o46
v5
n2.0
o5
o0
n-0.188
o0
v4
o2
v1
o2
v0
o41
v5
n2.0
o2
n-1
o5
o0
v0
v2
n2.0
C43
o54
3
o5
o0
n-0.684
o0
v3
o2
v1
o2
v0
o46
v5
n2.0
o5
o0
n-0.293
o0
v4
o2
v1
o2
v0
o41
v5
n2.0
o2
n-1
o5
o0
v0
v2
n2.0
C44
o54
3
o5
o0
n-0.565
o0
v3
o2
v1
o2
v0
o46
v5
n2.0
o5
o0
n-0.418
o0
v4
o2
v1
o2
v0
o41
v5
n2.0
o2
n-1
o5
o0
v0
v2
n2.0
C45
o54
3
o5
o0
n-0.566
o0
v3
o2
v1
o2
v0
o46
v5
n2.0
o5
o0
n-0.488
o0
v4
o2
v1
o2
v0
o41
v5
n2.0
o2
n-1
o5
o0
v0
v2
n2.0
C46
o54
3
o5
o0
n-0.607
o0
v3
o2
v1
o2
v0
o46
v5
n2.0
o5
o0
n-0.416
o0
v4
o2
v1
o2
v0
o41
v5
n2.0
o2
n-1
o5
o0
v0
v2
n2.0
C47
o54
3
o5
o0
n-0.036
o0
v3
o2
v1
o2
v0
o46
v5
n2.0
o5
o0
n-0.977
o0
v4
o2
v1
o2
v0
o41
v5
n2.0
o2
n-1
o5
o0
v0
v2
n2.0
C48
o54
3
o5
o0
n-0.647
o0
v3
o2
v1
o2
v0
o46
v5
n2.0
o5
o0
n-0.35
o0
v4
o2
v1
o2
v0
o41
v5
n2.0
o2
n-1
o5
o0
v0
v2
n2.0
C49
o54
3
o5
o0
n-0.553
o0
v3
o2
v1
o2
v0
o46
v5
n2.0
o5
o0
n-0.358
o0
v4
o2
v1
o2
v0
o41
v5
n2.0
o2
n-1
o5
o0
v0
v2
n2.0
C50
o54
3
o5
o0
n-0.514
v3
n2.0
o5
o0
n-0.176
v4
n2.0
o2
n-1
o5
o0
o2
v1
v0
v2
n2.0
C51
o54
3
o5
o0
n-0.948
v3
n2.0
o5
o0
n-0.172
v4
n2.0
o2
n-1
o5
o0
o2
v1
v0
v2
n2.0
C52
o54
3
o5
o0
n-0.702
v3
n2.0
o5
o0
n-0.226
v4
n2.0
o2
n-1
o5
o0
o2
v1
v0
v2
n2.0
C53
o54
3
o5
o0
n-0.495
v3
n2.0
o5
o0
n-0.125
v4
n2.0
o2
n-1
o5
o0
o2
v1
v0
v2
n2.0
C54
o54
3
o5
o0
n-0.823
v3
n2.0
o5
o0
n-0.152
v4
n2.0
o2
n-1
o5
o0
o2
v1
v0
v2
n2.0
C55
o54
3
o5
o0
n-0.625
v3
n2.0
o5
o0
n-0.315
v4
n2.0
o2
n-1
o5
o0
o2
v1
v0
v2
n2.0
C56
o54
3
o5
o0
n-0.347
v3
n2.0
o5
o0
n-0.917
v4
n2.0
o2
n-1
o5
o0
o2
v1
v0
v2
n2.0
C57
o54
3
o5
o0
n-0.52
v3
n2.0
o5
o0
n-0.401
v4
n2.0
o2
n-1
o5
o0
o2
v1
v0
v2
n2.0
C58
o54
3
o5
o0
n-0.607
v3
n2.0
o5
o0
n-0.785
v4
n2.0
o2
n-1
o5
o0
o2
v1
v0
v2
n2.0
C59
o54
3
o5
o0
n-0.758
v3
n2.0
o5
o0
n-0.582
v4
n2.0
o2
n-1
o5
o0
o2
v1
v0
v2
n2.0
C60
o54
3
o5
o0
n-0.2
v3
n2.0
o5
o0
n-0.827
v4
n2.0
o2
n-1
o5
o0
o2
v1
v0
v2
n2.0
C61
o54
3
o5
o0
n-0.416
v3
n2.0
o5
o0
n-0.464
v4
n2.0
o2
n-1
o5
o0
o2
v1
v0
v2
n2.0
C62
o54
3
o5
o0
n-0.979
v3
n2.0
o5
o0
n-0.126
v4
n2.0
o2
n-1
o5
o0
o2
v1
v0
v2
n2.0
C63
o54
3
o5
o0
n-0.213
v3
n2.0
o5
o0
n-0.958
v4
n2.0
o2
n-1
o5
o0
o2
v1
v0
v2
n2.0
C64
o54
3
o5
o0
n-0.737
v3
n2.0
o5
o0
n-0.409
v4
n2.0
o2
n-1
o5
o0
o2
v1
v0
v2
n2.0
C65
o54
3
o5
o0
n-0.957
v3
n2.0
o5
o0
n-0.028
v4
n2.0
o2
n-1
o5
o0
o2
v1
v0
v2
n2.0
C66
o54
3
o5
o0
n-0.319
v3
n2.0
o5
o0
n-0.757
v4
n2.0
o2
n-1
o5
o0
o2
v1
v0
v2
n2.0
C67
o54
3
o5
o0
n-0.572
v3
n2.0
o5
o0
n-0.119
v4
n2.0
o2
n-1
o5
o0
o2
v1
v0
v2
n2.0
C68
o54
3
o5
o0
n-0.57
v3
n2.0
o5
o0
n-0.252
v4
n2.0
o2
n-1
o5
o0
o2
v1
v0
v2
n2.0
C69
o54
3
o5
o0
n-0.496
v3
n2.0
o5
o0
n-0.237
v4
n2.0
o2
n-1
o5
o0
o2
v1
v0
v2
n2.0
C70
o54
3
o5
o0
n-0.477
v3
n2.0
o5
o0
n-0.406
v4
n2.0
o2
n-1
o5
o0
o2
v1
v0
v2
n2.0
C71
o54
3
o5
o0
n-0.873
v3
n2.0
o5
o0
n-0.427
v4
n2.0
o2
n-1
o5
o0
o2
v1
v0
v2
n2.0
C72
o54
3
o5
o0
n-0.522
v3
n2.0
o5
o0
n-0.697
v4
n2.0
o2
n-1
o5
o0
o2
v1
v0
v2
n2.0
C73
o54
3
o5
o0
n-0.773
v3
n2.0
o5
o0
n-0.245
v4
n2.0
o2
n-1
o5
o0
o2
v1
v0
v2
n2.0
C74
o54
3
o5
o0
n-0.887
v3
n2.0
o5
o0
n-0.037
v4
n2.0
o2
n-1
o5
o0
o2
v1
v0
v2
n2.0
C75
o54
3
o5
o0
n-0.651
v3
n2.0
o5
o0
n-0.399
v4
n2.0
o2
n-1
o5
o0
o2
v1
v0
v2
n2.0
C76
o54
3
o5
o0
n-0.676
v3
n2.0
o5
o0
n-0.733
v4
n2.0
o2
n-1
o5
o0
o2
v1
v0
v2
n2.0
C77
o54
3
o5
o0
n-0.938
v3
n2.0
o5
o0
n-0.233
v4
n2.0
o2
n-1
o5
o0
o2
v1
v0
v2
n2.0
C78
o54
3
o5
o0
n-0.779
v3
n2.0
o5
o0
n-0.431
v4
n2.0
o2
n-1
o5
o0
o2
v1
v0
v2
n2.0
C79
o54
3
o5
o0
n-0.75
v3
n2.0
o5
o0
n-0.208
v4
n2.0
o2
n-1
o5
o0
o2
v1
v0
v2
n2.0
C80
o54
3
o5
o0
n-0.803
v3
n2.0
o5
o0
n-0.219
v4
n2.0
o2
n-1
o5
o0
o2
v1
v0
v2
n2.0
C81
o54
3
o5
o0
n-0.563
v3
n2.0
o5
o0
n-0.716
v4
n2.0
o2
n-1
o5
o0
o2
v1
v0
v2
n2.0
C82
o54
3
o5
o0
n-0.653
v3
n2.0
o5
o0
n-0.604
v4
n2.0
o2
n-1
o5
o0
o2
v1
v0
v2
n2.0
C83
o54
3
o5
o0
n-0.79
v3
n2.0
o5
o0
n-0.079
v4
n2.0
o2
n-1
o5
o0
o2
v1
v0
v2
n2.0
C84
o54
3
o5
o0
n-0.246
v3
n2.0
o5
o0
n-0.945
v4
n2.0
o2
n-1
o5
o0
o2
v1
v0
v2
n2.0
C85
o54
3
o5
o0
n-0.477
v3
n2.0
o5
o0
n-0.8
v4
n2.0
o2
n-1
o5
o0
o2
v1
v0
v2
n2.0
C86
o54
3
o5
o0
n-0.744
v3
n2.0
o5
o0
n-0.381
v4
n2.0
o2
n-1
o5
o0
o2
v1
v0
v2
n2.0
C87
o54
3
o5
o0
n-0.48
v3
n2.0
o5
o0
n-0.527
v4
n2.0
o2
n-1
o5
o0
o2
v1
v0
v2
n2.0
C88
o54
3
o5
o0
n-0.446
v3
n2.0
o5
o0
n-0.705
v4
n2.0
o2
n-1
o5
o0
o2
v1
v0
v2
n2.0
C89
o54
3
o5
o0
n-0.095
v3
n2.0
o5
o0
n-0.963
v4
n2.0
o2
n-1
o5
o0
o2
v1
v0
v2
n2.0
C90
o54
3
o5
o0
n-0.551
v3
n2.0
o5
o0
n-0.74
v4
n2.0
o2
n-1
o5
o0
o2
v1
v0
v2
n2.0
C91
o54
3
o5
o0
n-0.579
v3
n2.0
o5
o0
n-0.638
v4
n2.0
o2
n-1
o5
o0
o2
v1
v0
v2
n2.0
C92
o54
3
o5
o0
n-0.782
v3
n2.0
o5
o0
n-0.188
v4
n2.0
o2
n-1
o5
o0
o2
v1
v0
v2
n2.0
C93
o54
3
o5
o0
n-0.684
v3
n2.0
o5
o0
n-0.293
v4
n2.0
o2
n-1
o5
o0
o2
v1
v0
v2
n2.0
C94
o54
3
o5
o0
n-0.565
v3
n2.0
o5
o0
n-0.418
v4
n2.0
o2
n-1
o5
o0
o2
v1
v0
v2
n2.0
C95
o54
3
o5
o0
n-0.566
v3
n2.0
o5
o0
n-0.488
v4
n2.0
o2
n-1
o5
o0
o2
v1
v0
v2
n2.0
C96
o54
3
o5
o0
n-0.607
v3
n2.0
o5
o0
n-0.416
v4
n2.0
o2
n-1
o5
o0
o2
v1
v0
v2
n2.0
C97
o54
3
o5
o0
n-0.036
v3
n2.0
o5
o0
n-0.977
v4
n2.0
o2
n-1
o5
o0
o2
v1
v0
v2
n2.0
C98
o54
3
o5
o0
n-0.647
v3
n2.0
o5
o0
n-0.35
v4
n2.0
o2
n-1
o5
o0
o2
v1
v0
v2
n2.0
C99
o54
3
o5
o0
n-0.553
v3
n2.0
o5
o0
n-0.358
v4
n2.0
o2
n-1
o5
o0
o2
v1
v0
v2
n2.0
O0 0
o54
3
o2
o5
o0
v0
v2
n2.0
o53
o3
o2
n0.5
o54
3
o2
n-1
o5
o2
v1
v0
n2.0
o5
o0
o2
v1
v0
v2
n2.0
o2
n-1
o5
o0
v0
v2
n2.0
o2
o0
v0
v2
o2
v1
v0
o2
n-1
o2
o5
o0
o2
v1
v0
v2
n2.0
o53
o3
o2
n0.5
o54
3
o5
o2
v1
v0
n2.0
o5
o0
o2
v1
v0
v2
n2.0
o2
n-1
o5
o0
v0
v2
n2.0
o2
o0
o2
v1
v0
v2
o2
v1
v0
o2
o0
v0
v2
o2
v1
o2
v0
o41
o53
o3
o2
n0.5
o54
3
o2
n-1
o5
o2
v1
v0
n2.0
o5
o0
o2
v1
v0
v2
n2.0
o2
n-1
o5
o0
v0
v2
n2.0
o2
o0
v0
v2
o2
v1
v0
x6
0 1.0
1 2.0
2 0.75
3 -40.0
4 5.0
5 1.5
r
1 0.0
1 0.0
1 0.0
1 0.0
1 0.0
1 0.0
1 0.0
1 0.0
1 0.0
1 0.0
1 0.0
1 0.0
1 0.0
1 0.0
1 0.0
1 0.0
1 0.0
1 0.0
1 0.0
1 0.0
1 0.0
1 0.0
1 0.0
1 0.0
1 0.0
1 0.0
1 0.0
1 0.0
1 0.0
1 0.0
1 0.0
1 0.0
1 0.0
1 0.0
1 0.0
1 0.0
1 0.0
1 0.0
1 0.0
1 0.0
1 0.0
1 0.0
1 0.0
1 0.0
1 0.0
1 0.0
1 0.0
1 0.0
1 0.0
1 0.0
2 0.0
2 0.0
2 0.0
2 0.0
2 0.0
2 0.0
2 0.0
2 0.0
2 0.0
2 0.0
2 0.0
2 0.0
2 0.0
2 0.0
2 0.0
2 0.0
2 0.0
2 0.0
2 0.0
2 0.0
2 0.0
2 0.0
2 0.0
2 0.0
2 0.0
2 0.0
2 0.0
2 0.0
2 0.0
2 0.0
2 0.0
2 0.0
2 0.0
2 0.0
2 0.0
2 0.0
2 0.0
2 0.0
2 0.0
2 0.0
2 0.0
2 0.0
2 0.0
2 0.0
2 0.0
2 0.0
2 0.0
2 0.0
2 0.0
2 0.0
b
2 1e-08
2 1.0
2 0.39
3
3
0 0.0 6.2831852
k5
100
200
300
400
500
J0 6
3 0
4 0
0 0
1 0
5 0
2 0
J1 6
3 0
4 0
0 0
1 0
5 0
2 0
J2 6
3 0
4 0
0 0
1 0
5 0
2 0
J3 6
3 0
4 0
0 0
1 0
5 0
2 0
J4 6
3 0
4 0
0 0
1 0
5 0
2 0
J5 6
3 0
4 0
0 0
1 0
5 0
2 0
J6 6
3 0
4 0
0 0
1 0
5 0
2 0
J7 6
3 0
4 0
0 0
1 0
5 0
2 0
J8 6
3 0
4 0
0 0
1 0
5 0
2 0
J9 6
3 0
4 0
0 0
1 0
5 0
2 0
J10 6
3 0
4 0
0 0
1 0
5 0
2 0
J11 6
3 0
4 0
0 0
1 0
5 0
2 0
J12 6
3 0
4 0
0 0
1 0
5 0
2 0
J13 6
3 0
4 0
0 0
1 0
5 0
2 0
J14 6
3 0
4 0
0 0
1 0
5 0
2 0
J15 6
3 0
4 0
0 0
1 0
5 0
2 0
J16 6
3 0
4 0
0 0
1 0
5 0
2 0
J17 6
3 0
4 0
0 0
1 0
5 0
2 0
J18 6
3 0
4 0
0 0
1 0
5 0
2 0
J19 6
3 0
4 0
0 0
1 0
5 0
2 0
J20 6
3 0
4 0
0 0
1 0
5 0
2 0
J21 6
3 0
4 0
0 0
1 0
5 0
2 0
J22 6
3 0
4 0
0 0
1 0
5 0
2 0
J23 6
3 0
4 0
0 0
1 0
5 0
2 0
J24 6
3 0
4 0
0 0
1 0
5 0
2 0
J25 6
3 0
4 0
0 0
1 0
5 0
2 0
J26 6
3 0
4 0
0 0
1 0
5 0
2 0
J27 6
3 0
4 0
0 0
1 0
5 0
2 0
J28 6
3 0
4 0
0 0
1 0
5 0
2 0
J29 6
3 0
4 0
0 0
1 0
5 0
2 0
J30 6
3 0
4 0
0 0
1 0
5 0
2 0
J31 6
3 0
4 0
0 0
1 0
5 0
2 0
J32 6
3 0
4 0
0 0
1 0
5 0
2 0
J33 6
3 0
4 0
0 0
1 0
5 0
2 0
J34 6
3 0
4 0
0 0
1 0
5 0
2 0
J35 6
3 0
4 0
0 0
1 0
5 0
2 0
J36 6
3 0
4 0
0 0
1 0
5 0
2 0
J37 6
3 0
4 0
0 0
1 0
5 0
2 0
J38 6
3 0
4 0
0 0
1 0
5 0
2 0
J39 6
3 0
4 0
0 0
1 0
5 0
2 0
J40 6
3 0
4 0
0 0
1 0
5 0
2 0
J41 6
3 0
4 0
0 0
1 0
5 0
2 0
J42 6
3 0
4 0
0 0
1 0
5 0
2 0
J43 6
3 0
4 0
0 0
1 0
5 0
2 0
J44 6
3 0
4 0
0 0
1 0
5 0
2 0
J45 6
3 0
4 0
0 0
1 0
5 0
2 0
J46 6
3 0
4 0
0 0
1 0
5 0
2 0
J47 6
3 0
4 0
0 0
1 0
5 0
2 0
J48 6
3 0
4 0
0 0
1 0
5 0
2 0
J49 6
3 0
4 0
0 0
1 0
5 0
2 0
J50 5
3 0
4 0
0 0
1 0
2 0
J51 5
3 0
4 0
0 0
1 0
2 0
J52 5
3 0
4 0
0 0
1 0
2 0
J53 5
3 0
4 0
0 0
1 0
2 0
J54 5
3 0
4 0
0 0
1 0
2 0
J55 5
3 0
4 0
0 0
1 0
2 0
J56 5
3 0
4 0
0 0
1 0
2 0
J57 5
3 0
4 0
0 0
1 0
2 0
J58 5
3 0
4 0
0 0
1 0
2 0
J59 5
3 0
4 0
0 0
1 0
2 0
J60 5
3 0
4 0
0 0
1 0
2 0
J61 5
3 0
4 0
0 0
1 0
2 0
J62 5
3 0
4 0
0 0
1 0
2 0
J63 5
3 0
4 0
0 0
1 0
2 0
J64 5
3 0
4 0
0 0
1 0
2 0
J65 5
3 0
4 0
0 0
1 0
2 0
J66 5
3 0
4 0
0 0
1 0
2 0
J67 5
3 0
4 0
0 0
1 0
2 0
J68 5
3 0
4 0
0 0
1 0
2 0
J69 5
3 0
4 0
0 0
1 0
2 0
J70 5
3 0
4 0
0 0
1 0
2 0
J71 5
3 0
4 0
0 0
1 0
2 0
J72 5
3 0
4 0
0 0
1 0
2 0
J73 5
3 0
4 0
0 0
1 0
2 0
J74 5
3 0
4 0
0 0
1 0
2 0
J75 5
3 0
4 0
0 0
1 0
2 0
J76 5
3 0
4 0
0 0
1 0
2 0
J77 5
3 0
4 0
0 0
1 0
2 0
J78 5
3 0
4 0
0 0
1 0
2 0
J79 5
3 0
4 0
0 0
1 0
2 0
J80 5
3 0
4 0
0 0
1 0
2 0
J81 5
3 0
4 0
0 0
1 0
2 0
J82 5
3 0
4 0
0 0
1 0
2 0
J83 5
3 0
4 0
0 0
1 0
2 0
J84 5
3 0
4 0
0 0
1 0
2 0
J85 5
3 0
4 0
0 0
1 0
2 0
J86 5
3 0
4 0
0 0
1 0
2 0
J87 5
3 0
4 0
0 0
1 0
2 0
J88 5
3 0
4 0
0 0
1 0
2 0
J89 5
3 0
4 0
0 0
1 0
2 0
J90 5
3 0
4 0
0 0
1 0
2 0
J91 5
3 0
4 0
0 0
1 0
2 0
J92 5
3 0
4 0
0 0
1 0
2 0
J93 5
3 0
4 0
0 0
1 0
2 0
J94 5
3 0
4 0
0 0
1 0
2 0
J95 5
3 0
4 0
0 0
1 0
2 0
J96 5
3 0
4 0
0 0
1 0
2 0
J97 5
3 0
4 0
0 0
1 0
2 0
J98 5
3 0
4 0
0 0
1 0
2 0
J99 5
3 0
4 0
0 0
1 0
2 0
G0 3
0 0
1 0
2 0
